p edge 25 320
e 1 7
e 1 13
e 1 19
e 1 25
e 1 2
e 1 3
e 1 4
e 1 5
e 1 6
e 1 11
e 1 16
e 1 21
e 2 8
e 2 14
e 2 20
e 2 6
e 2 3
e 2 4
e 2 5
e 2 7
e 2 12
e 2 17
e 2 22
e 2 1
e 3 9
e 3 15
e 3 7
e 3 11
e 3 4
e 3 5
e 3 8
e 3 13
e 3 18
e 3 23
e 3 2
e 3 1
e 4 10
e 4 8
e 4 12
e 4 16
e 4 5
e 4 9
e 4 14
e 4 19
e 4 24
e 4 3
e 4 2
e 4 1
e 5 9
e 5 13
e 5 17
e 5 21
e 5 10
e 5 15
e 5 20
e 5 25
e 5 4
e 5 3
e 5 2
e 5 1
e 6 12
e 6 18
e 6 24
e 6 7
e 6 8
e 6 9
e 6 10
e 6 11
e 6 16
e 6 21
e 6 2
e 6 1
e 7 13
e 7 19
e 7 25
e 7 11
e 7 8
e 7 9
e 7 10
e 7 12
e 7 17
e 7 22
e 7 6
e 7 3
e 7 2
e 7 1
e 8 14
e 8 20
e 8 12
e 8 16
e 8 9
e 8 10
e 8 13
e 8 18
e 8 23
e 8 7
e 8 6
e 8 4
e 8 3
e 8 2
e 9 15
e 9 13
e 9 17
e 9 21
e 9 10
e 9 14
e 9 19
e 9 24
e 9 8
e 9 7
e 9 6
e 9 5
e 9 4
e 9 3
e 10 14
e 10 18
e 10 22
e 10 15
e 10 20
e 10 25
e 10 9
e 10 8
e 10 7
e 10 6
e 10 5
e 10 4
e 11 17
e 11 23
e 11 12
e 11 13
e 11 14
e 11 15
e 11 16
e 11 21
e 11 7
e 11 6
e 11 3
e 11 1
e 12 18
e 12 24
e 12 16
e 12 13
e 12 14
e 12 15
e 12 17
e 12 22
e 12 11
e 12 8
e 12 7
e 12 6
e 12 4
e 12 2
e 13 19
e 13 25
e 13 17
e 13 21
e 13 14
e 13 15
e 13 18
e 13 23
e 13 12
e 13 11
e 13 9
e 13 8
e 13 7
e 13 5
e 13 3
e 13 1
e 14 20
e 14 18
e 14 22
e 14 15
e 14 19
e 14 24
e 14 13
e 14 12
e 14 11
e 14 10
e 14 9
e 14 8
e 14 4
e 14 2
e 15 19
e 15 23
e 15 20
e 15 25
e 15 14
e 15 13
e 15 12
e 15 11
e 15 10
e 15 9
e 15 5
e 15 3
e 16 22
e 16 17
e 16 18
e 16 19
e 16 20
e 16 21
e 16 12
e 16 11
e 16 8
e 16 6
e 16 4
e 16 1
e 17 23
e 17 21
e 17 18
e 17 19
e 17 20
e 17 22
e 17 16
e 17 13
e 17 12
e 17 11
e 17 9
e 17 7
e 17 5
e 17 2
e 18 24
e 18 22
e 18 19
e 18 20
e 18 23
e 18 17
e 18 16
e 18 14
e 18 13
e 18 12
e 18 10
e 18 8
e 18 6
e 18 3
e 19 25
e 19 23
e 19 20
e 19 24
e 19 18
e 19 17
e 19 16
e 19 15
e 19 14
e 19 13
e 19 9
e 19 7
e 19 4
e 19 1
e 20 24
e 20 25
e 20 19
e 20 18
e 20 17
e 20 16
e 20 15
e 20 14
e 20 10
e 20 8
e 20 5
e 20 2
e 21 22
e 21 23
e 21 24
e 21 25
e 21 17
e 21 16
e 21 13
e 21 11
e 21 9
e 21 6
e 21 5
e 21 1
e 22 23
e 22 24
e 22 25
e 22 21
e 22 18
e 22 17
e 22 16
e 22 14
e 22 12
e 22 10
e 22 7
e 22 2
e 23 24
e 23 25
e 23 22
e 23 21
e 23 19
e 23 18
e 23 17
e 23 15
e 23 13
e 23 11
e 23 8
e 23 3
e 24 25
e 24 23
e 24 22
e 24 21
e 24 20
e 24 19
e 24 18
e 24 14
e 24 12
e 24 9
e 24 6
e 24 4
e 25 24
e 25 23
e 25 22
e 25 21
e 25 20
e 25 19
e 25 15
e 25 13
e 25 10
e 25 7
e 25 5
e 25 1
c0: w_0 - x_3_1 - x_7_1 - x_8_1 - x_9_1 - x_13_1 <= w_1
c1: w_0 - x_12_1 - x_14_1 - x_18_1 - x_22_1 - x_24_1 <= w_1
c2: w_0 - x_16_1 - x_17_1 - x_19_1 - x_20_1 <= w_1
c3: w_0 - x_1_1 - x_2_1 - x_4_1 - x_5_1 <= w_1
c4: w_1 - x_3_2 - x_7_2 - x_8_2 - x_9_2 - x_13_2 <= w_2
c5: w_1 - x_12_2 - x_14_2 - x_18_2 - x_22_2 - x_24_2 <= w_2
c6: w_1 - x_16_2 - x_17_2 - x_19_2 - x_20_2 <= w_2
c7: w_1 - x_1_2 - x_2_2 - x_4_2 - x_5_2 <= w_2
c8: w_0 - x_1_1 - x_7_1 - x_13_1 - x_19_1 - x_25_1 <= w_1
c9: w_0 - x_4_1 - x_8_1 - x_9_1 - x_10_1 - x_14_1 <= w_1
c10: w_1 - x_2_2 - x_4_2 - x_8_2 - x_12_2 - x_14_2 <= w_2
c11: w_1 - x_11_2 - x_13_2 - x_17_2 - x_21_2 - x_23_2 <= w_2
c12: w_1 - x_9_2 - x_15_2 - x_19_2 <= w_2
c13: w_2 - x_13_3 - x_17_3 - x_18_3 - x_19_3 - x_23_3 <= w_3
c14: w_2 - x_4_3 - x_8_3 - x_9_3 - x_10_3 - x_14_3 <= w_3
c15: w_2 - x_2_3 - x_6_3 - x_7_3 - x_12_3 <= w_3
c16: w_2 - x_1_3 - x_3_3 - x_5_3 <= w_3
c17: w_3 - x_3_4 - x_7_4 - x_8_4 - x_9_4 - x_13_4 <= w_4
c18: w_3 - x_14_4 - x_18_4 - x_19_4 - x_20_4 - x_24_4 <= w_4
c19: w_3 - x_2_4 - x_12_4 - x_17_4 - x_22_4 <= w_4
c20: w_3 - x_1_4 - x_5_4 - x_21_4 - x_25_4 <= w_4
c21: w_4 - x_3_5 - x_7_5 - x_8_5 - x_9_5 - x_13_5 <= w_5
c22: w_4 - x_12_5 - x_14_5 - x_18_5 - x_22_5 - x_24_5 <= w_5
c23: w_4 - x_16_5 - x_17_5 - x_19_5 - x_20_5 <= w_5
c24: w_4 - x_1_5 - x_2_5 - x_4_5 - x_5_5 <= w_5
c25: w_4 - x_10_5 - x_15_5 - x_25_5 <= w_5
c26: w_5 - x_3_6 - x_7_6 - x_8_6 - x_9_6 - x_13_6 <= w_6
c27: w_5 - x_14_6 - x_18_6 - x_19_6 - x_20_6 - x_24_6 <= w_6
c28: w_5 - x_11_6 - x_12_6 - x_16_6 - x_17_6 <= w_6
c29: w_5 - x_1_6 - x_5_6 - x_21_6 - x_25_6 <= w_6
c30: w_0 - x_13_1 - x_17_1 - x_18_1 - x_19_1 - x_23_1 <= w_1
c31: w_0 - x_2_1 - x_6_1 - x_7_1 - x_8_1 - x_12_1 <= w_1
c32: w_0 - x_3_1 - x_11_1 - x_15_1 <= w_1
c33: w_0 - x_4_1 - x_9_1 - x_14_1 - x_24_1 <= w_1
c34: w_1 - x_8_2 - x_10_2 - x_14_2 - x_18_2 - x_20_2 <= w_2
c35: w_1 - x_1_2 - x_6_2 - x_11_2 - x_16_2 - x_21_2 <= w_2
c36: w_1 - x_7_2 - x_9_2 - x_13_2 - x_17_2 - x_19_2 <= w_2
c37: w_2 - x_7_3 - x_8_3 - x_12_3 - x_13_3 <= w_3
c38: w_2 - x_14_3 - x_18_3 - x_22_3 - x_24_3 <= w_3
c39: w_2 - x_5_3 - x_10_3 - x_15_3 - x_20_3 - x_25_3 <= w_3
c40: w_2 - x_1_3 - x_6_3 - x_11_3 - x_16_3 - x_21_3 <= w_3
c41: w_3 - x_7_4 - x_9_4 - x_13_4 - x_17_4 - x_19_4 <= w_4
c42: w_3 - x_4_4 - x_12_4 - x_14_4 - x_24_4 <= w_4
c43: w_4 - x_7_5 - x_9_5 - x_13_5 - x_17_5 - x_19_5 <= w_5
c44: w_4 - x_2_5 - x_4_5 - x_8_5 - x_12_5 - x_14_5 <= w_5
c45: w_4 - x_5_5 - x_10_5 - x_15_5 - x_20_5 - x_25_5 <= w_5
c46: w_4 - x_11_5 - x_21_5 - x_23_5 <= w_5
c47: w_5 - x_2_6 - x_7_6 - x_12_6 - x_17_6 - x_22_6 <= w_6
c48: w_5 - x_4_6 - x_8_6 - x_9_6 - x_10_6 - x_14_6 <= w_6
c49: w_6 - x_7_7 - x_9_7 - x_13_7 - x_17_7 - x_19_7 <= w_7
c50: w_6 - x_8_7 - x_12_7 - x_14_7 - x_18_7 <= w_7
c51: w_6 - x_1_7 - x_2_7 - x_3_7 - x_4_7 - x_5_7 <= w_7
c52: w_7 - x_3_8 - x_7_8 - x_8_8 - x_9_8 - x_13_8 <= w_8
c53: w_7 - x_14_8 - x_18_8 - x_19_8 - x_20_8 - x_24_8 <= w_8
c54: w_7 - x_2_8 - x_12_8 - x_17_8 - x_22_8 <= w_8
c55: w_7 - x_1_8 - x_4_8 - x_5_8 <= w_8
c56: w_7 - x_10_8 - x_15_8 - x_25_8 <= w_8
c57: w_8 - x_3_9 - x_7_9 - x_8_9 - x_9_9 - x_13_9 <= w_9
c58: w_8 - x_14_9 - x_18_9 - x_19_9 - x_20_9 - x_24_9 <= w_9
c59: w_8 - x_2_9 - x_12_9 - x_17_9 - x_22_9 <= w_9
c60: w_8 - x_1_9 - x_4_9 - x_5_9 <= w_9
c61: w_8 - x_10_9 - x_15_9 - x_25_9 <= w_9
c62: w_8 - x_6_9 - x_11_9 - x_16_9 - x_21_9 <= w_9
c63: w_9 - x_3_10 - x_7_10 - x_8_10 - x_9_10 - x_13_10 <= w_10
c64: w_9 - x_12_10 - x_14_10 - x_18_10 - x_22_10 - x_24_10 <= w_10
c65: w_9 - x_16_10 - x_17_10 - x_19_10 - x_20_10 <= w_10
c66: w_9 - x_1_10 - x_2_10 - x_4_10 - x_5_10 <= w_10
c67: w_10 - x_3_11 - x_7_11 - x_8_11 - x_9_11 - x_13_11 <= w_11
c68: w_10 - x_14_11 - x_18_11 - x_19_11 - x_20_11 - x_24_11 <= w_11
c69: w_10 - x_2_11 - x_12_11 - x_17_11 - x_22_11 <= w_11
c70: w_10 - x_1_11 - x_4_11 - x_5_11 <= w_11
c71: w_10 - x_10_11 - x_15_11 - x_25_11 <= w_11
c72: w_11 - x_3_12 - x_7_12 - x_8_12 - x_9_12 - x_13_12 <= w_12
c73: w_11 - x_12_12 - x_14_12 - x_18_12 - x_22_12 - x_24_12 <= w_12
c74: w_11 - x_16_12 - x_17_12 - x_19_12 - x_20_12 <= w_12
c75: w_11 - x_1_12 - x_2_12 - x_4_12 - x_5_12 <= w_12
c76: w_12 - x_3_13 - x_7_13 - x_8_13 - x_9_13 - x_13_13 <= w_13
c77: w_12 - x_14_13 - x_18_13 - x_19_13 - x_20_13 - x_24_13 <= w_13
c78: w_12 - x_2_13 - x_12_13 - x_17_13 - x_22_13 <= w_13
c79: w_12 - x_1_13 - x_4_13 - x_5_13 <= w_13
c80: w_12 - x_10_13 - x_15_13 - x_25_13 <= w_13
c81: w_13 - x_7_14 - x_9_14 - x_13_14 - x_17_14 - x_19_14 <= w_14
c82: w_13 - x_8_14 - x_12_14 - x_14_14 - x_18_14 <= w_14
c83: w_13 - x_1_14 - x_2_14 - x_3_14 - x_4_14 - x_5_14 <= w_14
c84: w_14 - x_7_15 - x_9_15 - x_13_15 - x_17_15 - x_19_15 <= w_15
c85: w_14 - x_8_15 - x_12_15 - x_14_15 - x_18_15 <= w_15
c86: w_14 - x_1_15 - x_2_15 - x_3_15 - x_4_15 - x_5_15 <= w_15
c87: w_14 - x_11_15 - x_15_15 - x_23_15 <= w_15
c88: w_15 - x_3_16 - x_7_16 - x_8_16 - x_9_16 - x_13_16 <= w_16
c89: w_15 - x_12_16 - x_14_16 - x_18_16 - x_22_16 - x_24_16 <= w_16
c90: w_15 - x_16_16 - x_17_16 - x_19_16 - x_20_16 <= w_16
c91: w_15 - x_1_16 - x_2_16 - x_4_16 - x_5_16 <= w_16
c92: w_16 - x_3_17 - x_7_17 - x_8_17 - x_9_17 - x_13_17 <= w_17
c93: w_16 - x_14_17 - x_18_17 - x_19_17 - x_20_17 - x_24_17 <= w_17
c94: w_16 - x_2_17 - x_12_17 - x_17_17 - x_22_17 <= w_17
c95: w_16 - x_1_17 - x_4_17 - x_5_17 <= w_17
c96: w_17 - x_7_18 - x_9_18 - x_13_18 - x_17_18 - x_19_18 <= w_18
c97: w_17 - x_8_18 - x_12_18 - x_14_18 - x_18_18 <= w_18
c98: w_17 - x_1_18 - x_2_18 - x_3_18 - x_4_18 - x_5_18 <= w_18
c99: w_17 - x_10_18 - x_15_18 - x_20_18 - x_25_18 <= w_18
c100: w_17 - x_16_18 - x_21_18 - x_22_18 <= w_18
c101: w_18 - x_3_19 - x_7_19 - x_8_19 - x_9_19 - x_13_19 <= w_19
c102: w_18 - x_12_19 - x_14_19 - x_18_19 - x_22_19 - x_24_19 <= w_19
c103: w_18 - x_16_19 - x_17_19 - x_19_19 - x_20_19 <= w_19
c104: w_18 - x_1_19 - x_2_19 - x_4_19 - x_5_19 <= w_19
c105: w_19 - x_3_20 - x_7_20 - x_8_20 - x_9_20 - x_13_20 <= w_20
c106: w_19 - x_14_20 - x_18_20 - x_19_20 - x_20_20 - x_24_20 <= w_20
c107: w_19 - x_2_20 - x_12_20 - x_17_20 - x_22_20 <= w_20
c108: w_19 - x_1_20 - x_4_20 - x_5_20 <= w_20
c109: w_20 - x_7_21 - x_9_21 - x_13_21 - x_17_21 - x_19_21 <= w_21
c110: w_20 - x_8_21 - x_12_21 - x_14_21 - x_18_21 <= w_21
c111: w_20 - x_1_21 - x_2_21 - x_3_21 - x_4_21 - x_5_21 <= w_21
c112: w_21 - x_7_22 - x_9_22 - x_13_22 - x_17_22 - x_19_22 <= w_22
c113: w_21 - x_8_22 - x_12_22 - x_14_22 - x_18_22 <= w_22
c114: w_21 - x_1_22 - x_2_22 - x_3_22 - x_4_22 - x_5_22 <= w_22
c115: w_21 - x_6_22 - x_11_22 - x_16_22 - x_21_22 <= w_22
c116: w_22 - x_3_23 - x_7_23 - x_8_23 - x_9_23 - x_13_23 <= w_23
c117: w_22 - x_14_23 - x_18_23 - x_19_23 - x_20_23 - x_24_23 <= w_23
c118: w_22 - x_2_23 - x_12_23 - x_17_23 - x_22_23 <= w_23
c119: w_22 - x_1_23 - x_4_23 - x_5_23 <= w_23
c120: w_23 - x_7_24 - x_9_24 - x_13_24 - x_17_24 - x_19_24 <= w_24
c121: w_23 - x_8_24 - x_12_24 - x_14_24 - x_18_24 <= w_24
c122: w_23 - x_1_24 - x_2_24 - x_3_24 - x_4_24 - x_5_24 <= w_24
c123: w_24 - x_3_25 - x_7_25 - x_8_25 - x_9_25 - x_13_25 <= w_25
c124: w_24 - x_14_25 - x_18_25 - x_19_25 - x_20_25 - x_24_25 <= w_25
c125: w_24 - x_2_25 - x_12_25 - x_17_25 - x_22_25 <= w_25
c126: w_24 - x_1_25 - x_4_25 - x_5_25 <= w_25
c127: w_24 - x_10_25 - x_15_25 - x_25_25 <= w_25
c128: w_0 - x_7_1 - x_11_1 - x_12_1 - x_13_1 - x_17_1 <= w_1
c129: w_0 - x_14_1 - x_15_1 - x_19_1 - x_20_1 <= w_1
c130: w_1 - x_13_2 - x_17_2 - x_18_2 - x_19_2 - x_23_2 <= w_2
c131: w_2 - x_7_3 - x_9_3 - x_13_3 - x_17_3 - x_19_3 <= w_3
c132: w_2 - x_2_3 - x_3_3 - x_4_3 - x_8_3 <= w_3
c133: w_2 - x_1_3 - x_5_3 - x_21_3 - x_25_3 <= w_3
c134: w_3 - x_8_4 - x_12_4 - x_13_4 - x_14_4 - x_18_4 <= w_4
c135: w_3 - x_5_4 - x_9_4 - x_10_4 - x_15_4 <= w_4
c136: w_3 - x_1_4 - x_6_4 - x_11_4 - x_16_4 - x_21_4 <= w_4
c137: w_0 - x_5_1 - x_9_1 - x_13_1 - x_17_1 - x_21_1 <= w_1
c138: w_0 - x_2_1 - x_12_1 - x_14_1 - x_22_1 <= w_1
c139: w_1 - x_6_2 - x_12_2 - x_18_2 - x_24_2 <= w_2
c140: w_1 - x_5_2 - x_10_2 - x_15_2 - x_20_2 - x_25_2 <= w_2
c141: w_2 - x_3_3 - x_5_3 - x_9_3 - x_13_3 - x_15_3 <= w_3
c142: w_2 - x_8_3 - x_16_3 - x_18_3 - x_20_3 <= w_3
c143: w_2 - x_1_3 - x_2_3 - x_6_3 - x_7_3 <= w_3
c144: w_3 - x_17_4 - x_18_4 - x_22_4 - x_23_4 <= w_4
c145: w_3 - x_6_4 - x_7_4 - x_8_4 - x_9_4 - x_10_4 <= w_4
c146: w_3 - x_1_4 - x_2_4 - x_3_4 - x_4_4 - x_5_4 <= w_4
c147: w_4 - x_3_5 - x_8_5 - x_13_5 - x_18_5 - x_23_5 <= w_5
c148: w_5 - x_8_6 - x_12_6 - x_13_6 - x_14_6 - x_18_6 <= w_6
c149: w_5 - x_1_6 - x_4_6 - x_16_6 - x_19_6 <= w_6
c150: w_6 - x_3_7 - x_7_7 - x_8_7 - x_9_7 - x_13_7 <= w_7
c151: w_6 - x_18_7 - x_22_7 - x_23_7 - x_24_7 <= w_7
c152: w_7 - x_12_8 - x_13_8 - x_17_8 - x_18_8 <= w_8
c153: w_8 - x_12_9 - x_13_9 - x_17_9 - x_18_9 <= w_9
c154: w_8 - x_4_9 - x_8_9 - x_9_9 - x_10_9 - x_14_9 <= w_9
c155: w_8 - x_1_9 - x_6_9 - x_11_9 - x_16_9 - x_21_9 <= w_9
c156: w_9 - x_7_10 - x_9_10 - x_13_10 - x_17_10 - x_19_10 <= w_10
c157: w_9 - x_11_10 - x_12_10 - x_14_10 - x_15_10 <= w_10
c158: w_10 - x_12_11 - x_13_11 - x_17_11 - x_18_11 <= w_11
c159: w_11 - x_13_12 - x_17_12 - x_18_12 - x_19_12 - x_23_12 <= w_12
c160: w_11 - x_2_12 - x_6_12 - x_7_12 - x_8_12 - x_12_12 <= w_12
c161: w_11 - x_4_12 - x_9_12 - x_10_12 - x_14_12 <= w_12
c162: w_12 - x_8_13 - x_12_13 - x_13_13 - x_14_13 - x_18_13 <= w_13
c163: w_12 - x_21_13 - x_22_13 - x_23_13 - x_24_13 - x_25_13 <= w_13
c164: w_12 - x_1_13 - x_4_13 - x_16_13 - x_19_13 <= w_13
c165: w_13 - x_3_14 - x_7_14 - x_8_14 - x_9_14 - x_13_14 <= w_14
c166: w_13 - x_12_14 - x_16_14 - x_17_14 - x_18_14 - x_22_14 <= w_14
c167: w_14 - x_3_15 - x_7_15 - x_8_15 - x_9_15 - x_13_15 <= w_15
c168: w_14 - x_12_15 - x_16_15 - x_17_15 - x_18_15 - x_22_15 <= w_15
c169: w_15 - x_13_16 - x_17_16 - x_18_16 - x_19_16 - x_23_16 <= w_16
c170: w_15 - x_6_16 - x_7_16 - x_8_16 - x_9_16 - x_10_16 <= w_16
c171: w_16 - x_8_17 - x_12_17 - x_13_17 - x_14_17 - x_18_17 <= w_17
c172: w_16 - x_15_17 - x_19_17 - x_23_17 - x_25_17 <= w_17
c173: w_16 - x_1_17 - x_4_17 - x_16_17 <= w_17
c174: w_17 - x_3_18 - x_8_18 - x_13_18 - x_18_18 - x_23_18 <= w_18
c175: w_17 - x_6_18 - x_7_18 - x_9_18 - x_10_18 <= w_18
c176: w_18 - x_13_19 - x_17_19 - x_18_19 - x_19_19 - x_23_19 <= w_19
c177: w_18 - x_6_19 - x_7_19 - x_11_19 - x_12_19 <= w_19
c178: w_19 - x_12_20 - x_13_20 - x_17_20 - x_18_20 <= w_20
c179: w_19 - x_4_20 - x_8_20 - x_9_20 - x_10_20 - x_14_20 <= w_20
c180: w_19 - x_1_20 - x_6_20 - x_11_20 - x_16_20 - x_21_20 <= w_20
c181: w_19 - x_15_20 - x_19_20 - x_23_20 - x_25_20 <= w_20
c182: w_20 - x_3_21 - x_7_21 - x_8_21 - x_9_21 - x_13_21 <= w_21
c183: w_20 - x_12_21 - x_16_21 - x_17_21 - x_18_21 - x_22_21 <= w_21
c184: w_21 - x_3_22 - x_8_22 - x_13_22 - x_18_22 - x_23_22 <= w_22
c185: w_21 - x_7_22 - x_10_22 - x_22_22 - x_25_22 <= w_22
c186: w_22 - x_12_23 - x_13_23 - x_17_23 - x_18_23 <= w_23
c187: w_22 - x_4_23 - x_8_23 - x_9_23 - x_10_23 - x_14_23 <= w_23
c188: w_22 - x_1_23 - x_6_23 - x_11_23 - x_16_23 - x_21_23 <= w_23
c189: w_23 - x_3_24 - x_7_24 - x_8_24 - x_9_24 - x_13_24 <= w_24
c190: w_23 - x_12_24 - x_16_24 - x_17_24 - x_18_24 - x_22_24 <= w_24
c191: w_0 - x_12_1 - x_16_1 - x_17_1 - x_18_1 - x_22_1 <= w_1
c192: w_0 - x_9_1 - x_13_1 - x_14_1 - x_15_1 - x_19_1 <= w_1
c193: w_0 - x_1_1 - x_2_1 - x_3_1 - x_4_1 - x_5_1 <= w_1
c194: w_1 - x_5_2 - x_9_2 - x_13_2 - x_17_2 - x_21_2 <= w_2
c195: w_1 - x_6_2 - x_7_2 - x_8_2 - x_10_2 <= w_2
c196: w_1 - x_4_2 - x_14_2 - x_19_2 - x_24_2 <= w_2
c197: w_2 - x_3_3 - x_7_3 - x_8_3 - x_9_3 - x_13_3 <= w_3
c198: w_2 - x_1_3 - x_19_3 - x_25_3 <= w_3
c199: w_2 - x_11_3 - x_17_3 - x_21_3 - x_23_3 <= w_3
c200: w_2 - x_12_3 - x_14_3 - x_18_3 - x_22_3 - x_24_3 <= w_3
c201: w_3 - x_13_4 - x_15_4 - x_19_4 - x_23_4 - x_25_4 <= w_4
c202: w_3 - x_2_4 - x_4_4 - x_8_4 - x_12_4 - x_14_4 <= w_4
c203: w_4 - x_12_5 - x_16_5 - x_17_5 - x_18_5 - x_22_5 <= w_5
c204: w_4 - x_6_5 - x_7_5 - x_8_5 - x_9_5 - x_10_5 <= w_5
c205: w_5 - x_7_6 - x_9_6 - x_13_6 - x_17_6 - x_19_6 <= w_6
c206: w_6 - x_9_7 - x_13_7 - x_14_7 - x_15_7 - x_19_7 <= w_7
c207: w_6 - x_4_7 - x_8_7 - x_10_7 <= w_7
c208: w_6 - x_16_7 - x_17_7 - x_21_7 - x_22_7 <= w_7
c209: w_7 - x_7_8 - x_9_8 - x_13_8 - x_17_8 - x_19_8 <= w_8
c210: w_7 - x_4_8 - x_8_8 - x_10_8 - x_14_8 <= w_8
c211: w_7 - x_1_8 - x_6_8 - x_11_8 - x_16_8 - x_21_8 <= w_8
c212: w_7 - x_22_8 - x_23_8 - x_24_8 - x_25_8 <= w_8
c213: w_8 - x_7_9 - x_9_9 - x_13_9 - x_17_9 - x_19_9 <= w_9
c214: w_8 - x_21_9 - x_22_9 - x_23_9 - x_24_9 - x_25_9 <= w_9
c215: w_8 - x_1_9 - x_2_9 - x_3_9 - x_4_9 - x_5_9 <= w_9
c216: w_8 - x_6_9 - x_8_9 - x_12_9 - x_16_9 - x_18_9 <= w_9
c217: w_9 - x_13_10 - x_17_10 - x_18_10 - x_19_10 - x_23_10 <= w_10
c218: w_9 - x_8_10 - x_10_10 - x_14_10 - x_20_10 <= w_10
c219: w_10 - x_7_11 - x_9_11 - x_13_11 - x_17_11 - x_19_11 <= w_11
c220: w_10 - x_10_11 - x_14_11 - x_18_11 - x_22_11 <= w_11
c221: w_11 - x_1_12 - x_7_12 - x_13_12 - x_19_12 - x_25_12 <= w_12
c222: w_11 - x_11_12 - x_12_12 - x_14_12 - x_15_12 <= w_12
c223: w_11 - x_5_12 - x_10_12 - x_20_12 <= w_12
c224: w_12 - x_13_13 - x_17_13 - x_18_13 - x_19_13 - x_23_13 <= w_13
c225: w_12 - x_2_13 - x_6_13 - x_7_13 - x_8_13 - x_12_13 <= w_13
c226: w_12 - x_4_13 - x_5_13 - x_9_13 - x_10_13 <= w_13
c227: w_13 - x_11_14 - x_12_14 - x_13_14 - x_14_14 - x_15_14 <= w_14
c228: w_13 - x_2_14 - x_7_14 - x_17_14 - x_22_14 <= w_14
c229: w_13 - x_4_14 - x_8_14 - x_9_14 - x_10_14 <= w_14
c230: w_13 - x_6_14 - x_21_14 - x_24_14 <= w_14
c231: w_13 - x_19_14 - x_20_14 - x_25_14 <= w_14
c232: w_14 - x_1_15 - x_7_15 - x_13_15 - x_19_15 - x_25_15 <= w_15
c233: w_14 - x_12_15 - x_14_15 - x_18_15 - x_22_15 - x_24_15 <= w_15
c234: w_15 - x_7_16 - x_11_16 - x_12_16 - x_13_16 - x_17_16 <= w_16
c235: w_15 - x_10_16 - x_14_16 - x_15_16 - x_20_16 <= w_16
c236: w_16 - x_13_17 - x_17_17 - x_18_17 - x_19_17 - x_23_17 <= w_17
c237: w_16 - x_6_17 - x_7_17 - x_8_17 - x_9_17 - x_10_17 <= w_17
c238: w_17 - x_4_18 - x_8_18 - x_9_18 - x_10_18 - x_14_18 <= w_18
c239: w_17 - x_7_18 - x_22_18 - x_25_18 <= w_18
c240: w_18 - x_7_19 - x_9_19 - x_13_19 - x_17_19 - x_19_19 <= w_19
c241: w_18 - x_2_19 - x_4_19 - x_8_19 - x_12_19 - x_14_19 <= w_19
c242: w_19 - x_7_20 - x_9_20 - x_13_20 - x_17_20 - x_19_20 <= w_20
c243: w_19 - x_1_20 - x_2_20 - x_3_20 - x_4_20 - x_5_20 <= w_20
c244: w_19 - x_12_20 - x_16_20 - x_18_20 - x_22_20 <= w_20
c245: w_20 - x_13_21 - x_14_21 - x_18_21 - x_19_21 <= w_21
c246: w_20 - x_1_21 - x_6_21 - x_7_21 - x_11_21 <= w_21
c247: w_20 - x_15_21 - x_23_21 - x_25_21 <= w_21
c248: w_21 - x_3_22 - x_7_22 - x_8_22 - x_9_22 - x_13_22 <= w_22
c249: w_21 - x_4_22 - x_14_22 - x_19_22 - x_24_22 <= w_22
c250: w_22 - x_7_23 - x_9_23 - x_13_23 - x_17_23 - x_19_23 <= w_23
c251: w_23 - x_1_24 - x_7_24 - x_13_24 - x_19_24 - x_25_24 <= w_24
c252: w_23 - x_12_24 - x_14_24 - x_18_24 - x_22_24 - x_24_24 <= w_24
c253: w_24 - x_12_25 - x_13_25 - x_17_25 - x_18_25 <= w_25
c254: w_0 - x_21_1 - x_22_1 - x_23_1 - x_24_1 - x_25_1 <= w_1
c255: w_0 - x_1_1 - x_2_1 - x_3_1 - x_7_1 <= w_1
c256: w_0 - x_10_1 - x_14_1 - x_15_1 - x_20_1 <= w_1
c257: w_1 - x_16_2 - x_17_2 - x_18_2 - x_19_2 - x_20_2 <= w_2
c258: w_2 - x_2_3 - x_8_3 - x_14_3 - x_20_3 <= w_3
c259: w_2 - x_5_3 - x_9_3 - x_13_3 - x_17_3 - x_21_3 <= w_3
c260: w_3 - x_16_4 - x_17_4 - x_18_4 - x_19_4 - x_20_4 <= w_4
c261: w_3 - x_3_4 - x_4_4 - x_8_4 - x_9_4 <= w_4
c262: w_4 - x_11_5 - x_12_5 - x_13_5 - x_14_5 - x_15_5 <= w_5
c263: w_4 - x_1_5 - x_2_5 - x_3_5 - x_7_5 <= w_5
c264: w_4 - x_6_5 - x_9_5 - x_21_5 - x_24_5 <= w_5
c265: w_5 - x_12_6 - x_13_6 - x_17_6 - x_18_6 <= w_6
c266: w_5 - x_3_6 - x_4_6 - x_8_6 - x_9_6 <= w_6
c267: w_5 - x_6_6 - x_21_6 - x_24_6 <= w_6
c268: w_5 - x_15_6 - x_19_6 - x_23_6 - x_25_6 <= w_6
c269: w_7 - x_6_8 - x_8_8 - x_12_8 - x_16_8 - x_18_8 <= w_8
c270: w_7 - x_3_8 - x_5_8 - x_9_8 - x_13_8 - x_15_8 <= w_8
c271: w_8 - x_9_9 - x_13_9 - x_14_9 - x_15_9 - x_19_9 <= w_9
c272: w_10 - x_8_11 - x_12_11 - x_13_11 - x_14_11 - x_18_11 <= w_11
c273: w_10 - x_17_11 - x_21_11 - x_22_11 - x_23_11 <= w_11
c274: w_11 - x_5_12 - x_9_12 - x_13_12 - x_17_12 - x_21_12 <= w_12
c275: w_12 - x_4_13 - x_8_13 - x_9_13 - x_10_13 - x_14_13 <= w_13
c276: w_12 - x_7_13 - x_11_13 - x_12_13 - x_13_13 - x_17_13 <= w_13
c277: w_13 - x_13_14 - x_17_14 - x_18_14 - x_19_14 - x_23_14 <= w_14
c278: w_13 - x_21_14 - x_22_14 - x_24_14 - x_25_14 <= w_14
c279: w_14 - x_3_15 - x_8_15 - x_13_15 - x_18_15 - x_23_15 <= w_15
c280: w_14 - x_4_15 - x_9_15 - x_14_15 - x_19_15 - x_24_15 <= w_15
c281: w_15 - x_4_16 - x_8_16 - x_9_16 - x_10_16 - x_14_16 <= w_16
c282: w_16 - x_9_17 - x_13_17 - x_14_17 - x_15_17 - x_19_17 <= w_17
c283: w_16 - x_21_17 - x_22_17 - x_23_17 - x_24_17 - x_25_17 <= w_17
c284: w_17 - x_3_18 - x_7_18 - x_8_18 - x_9_18 - x_13_18 <= w_18
c285: w_0 - x_14_1 - x_18_1 - x_19_1 - x_20_1 - x_24_1 <= w_1
c286: w_0 - x_1_1 - x_3_1 - x_7_1 - x_11_1 - x_13_1 <= w_1
c287: w_1 - x_9_2 - x_10_2 - x_14_2 - x_15_2 <= w_2
c288: w_1 - x_18_2 - x_19_2 - x_23_2 - x_24_2 <= w_2
c289: w_1 - x_4_2 - x_8_2 - x_12_2 - x_16_2 <= w_2
c290: w_2 - x_7_3 - x_11_3 - x_12_3 - x_13_3 - x_17_3 <= w_3
c291: w_3 - x_13_4 - x_14_4 - x_18_4 - x_19_4 <= w_4
c292: w_3 - x_6_4 - x_8_4 - x_12_4 - x_16_4 <= w_4
c293: w_4 - x_1_5 - x_7_5 - x_13_5 - x_19_5 - x_25_5 <= w_5
c294: w_4 - x_2_5 - x_3_5 - x_4_5 - x_5_5 <= w_5
c295: w_4 - x_6_5 - x_11_5 - x_16_5 - x_21_5 <= w_5
c296: w_5 - x_4_6 - x_12_6 - x_14_6 - x_24_6 <= w_6
c297: w_5 - x_1_6 - x_5_6 - x_13_6 - x_21_6 - x_25_6 <= w_6
c298: w_6 - x_8_7 - x_12_7 - x_13_7 - x_14_7 - x_18_7 <= w_7
c299: w_6 - x_4_7 - x_5_7 - x_9_7 - x_10_7 <= w_7
c300: w_8 - x_8_9 - x_12_9 - x_13_9 - x_14_9 - x_18_9 <= w_9
c301: w_8 - x_11_9 - x_17_9 - x_21_9 - x_23_9 <= w_9
c302: w_9 - x_1_10 - x_7_10 - x_13_10 - x_19_10 - x_25_10 <= w_10
c303: w_9 - x_3_10 - x_11_10 - x_15_10 - x_23_10 <= w_10
c304: w_10 - x_13_11 - x_15_11 - x_19_11 - x_23_11 - x_25_11 <= w_11
c305: w_10 - x_2_11 - x_6_11 - x_7_11 - x_8_11 - x_12_11 <= w_11
c306: w_11 - x_2_12 - x_12_12 - x_14_12 - x_22_12 <= w_12
c307: w_11 - x_13_12 - x_21_12 - x_23_12 - x_25_12 <= w_12
c308: w_11 - x_5_12 - x_10_12 - x_15_12 - x_20_12 <= w_12
c309: w_12 - x_9_13 - x_13_13 - x_14_13 - x_15_13 - x_19_13 <= w_13
c310: w_12 - x_1_13 - x_2_13 - x_3_13 - x_4_13 - x_5_13 <= w_13
c311: w_12 - x_6_13 - x_11_13 - x_16_13 - x_21_13 <= w_13
c312: w_0 - x_16_1 - x_17_1 - x_18_1 - x_19_1 - x_20_1 <= w_1
c313: w_0 - x_2_1 - x_3_1 - x_7_1 - x_8_1 <= w_1
c314: w_0 - x_5_1 - x_10_1 - x_15_1 - x_25_1 <= w_1
c315: w_0 - x_11_1 - x_13_1 - x_21_1 - x_23_1 <= w_1
c316: w_1 - x_1_2 - x_3_2 - x_7_2 - x_11_2 - x_13_2 <= w_2
c317: w_1 - x_12_2 - x_16_2 - x_17_2 - x_18_2 - x_22_2 <= w_2
c318: w_1 - x_4_2 - x_8_2 - x_9_2 - x_10_2 - x_14_2 <= w_2
c319: w_2 - x_14_3 - x_18_3 - x_19_3 - x_20_3 - x_24_3 <= w_3
c320: w_2 - x_6_3 - x_8_3 - x_12_3 - x_16_3 <= w_3
c321: w_3 - x_2_4 - x_7_4 - x_12_4 - x_17_4 - x_22_4 <= w_4
c322: w_4 - x_9_5 - x_13_5 - x_14_5 - x_15_5 - x_19_5 <= w_5
c323: w_5 - x_6_6 - x_12_6 - x_18_6 - x_24_6 <= w_6
c324: w_5 - x_10_6 - x_14_6 - x_22_6 <= w_6
c325: w_5 - x_3_6 - x_5_6 - x_9_6 - x_13_6 - x_15_6 <= w_6
c326: w_9 - x_2_10 - x_4_10 - x_8_10 - x_12_10 - x_14_10 <= w_10
c327: w_10 - x_11_11 - x_12_11 - x_13_11 - x_14_11 - x_15_11 <= w_11
c328: w_10 - x_6_11 - x_9_11 - x_21_11 - x_24_11 <= w_11
c329: w_11 - x_9_12 - x_13_12 - x_14_12 - x_15_12 - x_19_12 <= w_12
c330: w_12 - x_8_13 - x_16_13 - x_18_13 - x_20_13 <= w_13
c331: w_13 - x_7_14 - x_10_14 - x_22_14 - x_25_14 <= w_14
c332: w_13 - x_14_14 - x_18_14 - x_19_14 - x_20_14 - x_24_14 <= w_14
c333: w_13 - x_3_14 - x_5_14 - x_9_14 - x_13_14 - x_15_14 <= w_14
c334: w_14 - x_14_15 - x_18_15 - x_19_15 - x_20_15 - x_24_15 <= w_15
c335: w_15 - x_7_16 - x_9_16 - x_13_16 - x_17_16 - x_19_16 <= w_16
c336: w_16 - x_7_17 - x_11_17 - x_12_17 - x_13_17 - x_17_17 <= w_17
c337: w_16 - x_2_17 - x_4_17 - x_8_17 - x_14_17 <= w_17
c338: w_17 - x_12_18 - x_14_18 - x_18_18 - x_22_18 - x_24_18 <= w_18
c339: w_17 - x_7_18 - x_11_18 - x_13_18 - x_17_18 <= w_18
c340: w_17 - x_3_18 - x_5_18 - x_9_18 - x_15_18 <= w_18
c341: w_1 - x_7_2 - x_8_2 - x_12_2 - x_13_2 <= w_2
c342: w_2 - x_14_3 - x_15_3 - x_19_3 - x_20_3 <= w_3
c343: w_2 - x_2_3 - x_7_3 - x_12_3 - x_17_3 - x_22_3 <= w_3
c344: w_3 - x_5_4 - x_9_4 - x_13_4 - x_17_4 - x_21_4 <= w_4
c345: w_3 - x_10_4 - x_14_4 - x_18_4 - x_22_4 <= w_4
c346: w_4 - x_1_5 - x_3_5 - x_7_5 - x_11_5 - x_13_5 <= w_5
c347: w_4 - x_6_5 - x_12_5 - x_18_5 - x_24_5 <= w_5
c348: w_5 - x_5_6 - x_9_6 - x_13_6 - x_17_6 - x_21_6 <= w_6
c349: w_5 - x_2_6 - x_6_6 - x_7_6 - x_8_6 - x_12_6 <= w_6
c350: w_5 - x_18_6 - x_19_6 - x_23_6 - x_24_6 <= w_6
c351: w_0 - x_5_1 - x_13_1 - x_15_1 - x_25_1 <= w_1
c352: w_1 - x_6_2 - x_8_2 - x_12_2 - x_16_2 - x_18_2 <= w_2
c353: w_2 - x_21_3 - x_22_3 - x_23_3 - x_24_3 - x_25_3 <= w_3
c354: w_2 - x_4_3 - x_8_3 - x_12_3 - x_16_3 <= w_3
c355: w_2 - x_9_3 - x_13_3 - x_14_3 - x_15_3 - x_19_3 <= w_3
c356: w_3 - x_7_4 - x_11_4 - x_12_4 - x_13_4 - x_17_4 <= w_4
c357: w_3 - x_4_4 - x_8_4 - x_9_4 - x_10_4 - x_14_4 <= w_4
c358: w_5 - x_6_6 - x_7_6 - x_8_6 - x_9_6 - x_10_6 <= w_6
c359: w_5 - x_13_6 - x_17_6 - x_18_6 - x_19_6 - x_23_6 <= w_6
c360: w_5 - x_5_6 - x_15_6 - x_20_6 - x_25_6 <= w_6
c361: w_6 - x_6_7 - x_8_7 - x_12_7 - x_16_7 - x_18_7 <= w_7
c362: w_6 - x_9_7 - x_21_7 - x_24_7 <= w_7
c363: w_6 - x_15_7 - x_19_7 - x_20_7 - x_25_7 <= w_7
